\Problem name: noname                                                           
\FICO Xpress v9.4.2, Hyper, written 10:19:50, Jul 22, 2025

Minimize
__OBJ___: 11253.874027455495 + 5000 v_0 + 5000 v_1 + 5000 v_2 + 5000 v_3 + 5000 v_4
 + 5000 v_5 + 5000 v_6 + 5000 v_7 + 5000 v_8 + 5000 v_9 + 500 w_0 + 500 w_1
 + 500 w_2 + 500 w_3 + 500 w_4 + 500 w_5 + 500 w_6 + 500 w_7 + 500 w_8
 + 500 w_9 + 14.563500000000001 y_0_0 + 14.563500000000001 y_1_0
 + 14.563500000000001 y_3_0 + 14.563500000000001 y_4_0
 + 14.563500000000001 y_5_0 + 14.563500000000001 y_6_0
 + 14.563500000000001 y_1_1 + 14.563500000000001 y_7_1
 + 14.563500000000001 y_8_1

Subject To
R1: v_0 - w_0 <= 0 
R2: v_1 - w_1 <= 0 
R3: v_2 - w_2 <= 0 
R4: v_3 - w_3 <= 0 
R5: v_4 - w_4 <= 0 
R6: v_5 - w_5 <= 0 
R7: v_6 - w_6 <= 0 
R8: v_7 - w_7 <= 0 
R9: v_8 - w_8 <= 0 
R10: v_9 - w_9 <= 0 
R11: - 8 v_0 + w_0 <= 0 
R12: - 8 v_1 + w_1 <= 0 
R13: - 8 v_2 + w_2 <= 0 
R14: - 8 v_3 + w_3 <= 0 
R15: - 8 v_4 + w_4 <= 0 
R16: - 8 v_5 + w_5 <= 0 
R17: - 8 v_6 + w_6 <= 0 
R18: - 8 v_7 + w_7 <= 0 
R19: - 8 v_8 + w_8 <= 0 
R20: - 8 v_9 + w_9 <= 0 
R21: - 2 w_0 + u_0_0_0 + u_1_0_0 + u_3_0_0 + u_4_0_0 + u_5_0_0 + u_6_0_0 <= 0 
R22: - 2 w_0 + u_1_0_1 + u_7_0_1 + u_8_0_1 <= 0 
R23: - 2 w_1 + u_0_1_0 + u_1_1_0 + u_3_1_0 + u_4_1_0 + u_5_1_0 + u_6_1_0 <= 0 
R24: - 2 w_1 + u_1_1_1 + u_7_1_1 + u_8_1_1 <= 0 
R25: - 2 w_2 + u_0_2_0 + u_1_2_0 + u_3_2_0 + u_4_2_0 + u_5_2_0 + u_6_2_0 <= 0 
R26: - 2 w_2 + u_1_2_1 + u_7_2_1 + u_8_2_1 <= 0 
R27: - 2 w_3 + u_0_3_0 + u_1_3_0 + u_3_3_0 + u_4_3_0 + u_5_3_0 + u_6_3_0 <= 0 
R28: - 2 w_3 + u_1_3_1 + u_7_3_1 + u_8_3_1 <= 0 
R29: - 2 w_4 + u_0_4_0 + u_1_4_0 + u_3_4_0 + u_4_4_0 + u_5_4_0 + u_6_4_0 <= 0 
R30: - 2 w_4 + u_1_4_1 + u_7_4_1 + u_8_4_1 <= 0 
R31: - 2 w_5 + u_0_5_0 + u_1_5_0 + u_3_5_0 + u_4_5_0 + u_5_5_0 + u_6_5_0 <= 0 
R32: - 2 w_5 + u_1_5_1 + u_7_5_1 + u_8_5_1 <= 0 
R33: - 2 w_6 + u_0_6_0 + u_1_6_0 + u_3_6_0 + u_4_6_0 + u_5_6_0 + u_6_6_0 <= 0 
R34: - 2 w_6 + u_1_6_1 + u_7_6_1 + u_8_6_1 <= 0 
R35: - 2 w_7 + u_0_7_0 + u_1_7_0 + u_3_7_0 + u_4_7_0 + u_5_7_0 + u_6_7_0 <= 0 
R36: - 2 w_7 + u_1_7_1 + u_7_7_1 + u_8_7_1 <= 0 
R37: - 2 w_8 + u_0_8_0 + u_1_8_0 + u_3_8_0 + u_4_8_0 + u_5_8_0 + u_6_8_0 <= 0 
R38: - 2 w_8 + u_1_8_1 + u_7_8_1 + u_8_8_1 <= 0 
R39: - 2 w_9 + u_0_9_0 + u_1_9_0 + u_3_9_0 + u_4_9_0 + u_5_9_0 + u_6_9_0 <= 0 
R40: - 2 w_9 + u_1_9_1 + u_7_9_1 + u_8_9_1 <= 0 
R41: u_0_0_0 + u_0_1_0 + u_0_2_0 + u_0_3_0 + u_0_4_0 + u_0_5_0 + u_0_6_0
          + u_0_7_0 + u_0_8_0 + u_0_9_0 <= 1 
R42: u_1_0_0 + u_1_1_0 + u_1_2_0 + u_1_3_0 + u_1_4_0 + u_1_5_0 + u_1_6_0
          + u_1_7_0 + u_1_8_0 + u_1_9_0 <= 1 
R43: u_3_0_0 + u_3_1_0 + u_3_2_0 + u_3_3_0 + u_3_4_0 + u_3_5_0 + u_3_6_0
          + u_3_7_0 + u_3_8_0 + u_3_9_0 <= 1 
R44: u_4_0_0 + u_4_1_0 + u_4_2_0 + u_4_3_0 + u_4_4_0 + u_4_5_0 + u_4_6_0
          + u_4_7_0 + u_4_8_0 + u_4_9_0 <= 1 
R45: u_5_0_0 + u_5_1_0 + u_5_2_0 + u_5_3_0 + u_5_4_0 + u_5_5_0 + u_5_6_0
          + u_5_7_0 + u_5_8_0 + u_5_9_0 <= 1 
R46: u_6_0_0 + u_6_1_0 + u_6_2_0 + u_6_3_0 + u_6_4_0 + u_6_5_0 + u_6_6_0
          + u_6_7_0 + u_6_8_0 + u_6_9_0 <= 1 
R47: u_1_0_1 + u_1_1_1 + u_1_2_1 + u_1_3_1 + u_1_4_1 + u_1_5_1 + u_1_6_1
          + u_1_7_1 + u_1_8_1 + u_1_9_1 <= 1 
R48: u_7_0_1 + u_7_1_1 + u_7_2_1 + u_7_3_1 + u_7_4_1 + u_7_5_1 + u_7_6_1
          + u_7_7_1 + u_7_8_1 + u_7_9_1 <= 1 
R49: u_8_0_1 + u_8_1_1 + u_8_2_1 + u_8_3_1 + u_8_4_1 + u_8_5_1 + u_8_6_1
          + u_8_7_1 + u_8_8_1 + u_8_9_1 <= 1 
R50: u_0_0_0 + u_0_1_0 + u_0_2_0 + u_0_3_0 + u_0_4_0 + u_0_5_0 + u_0_6_0
          + u_0_7_0 + u_0_8_0 + u_0_9_0 + u_1_0_0 + u_1_1_0 + u_1_2_0 + u_1_3_0
          + u_1_4_0 + u_1_5_0 + u_1_6_0 + u_1_7_0 + u_1_8_0 + u_1_9_0 + u_3_0_0
          + u_3_1_0 + u_3_2_0 + u_3_3_0 + u_3_4_0 + u_3_5_0 + u_3_6_0 + u_3_7_0
          + u_3_8_0 + u_3_9_0 + u_4_0_0 + u_4_1_0 + u_4_2_0 + u_4_3_0 + u_4_4_0
          + u_4_5_0 + u_4_6_0 + u_4_7_0 + u_4_8_0 + u_4_9_0 + u_5_0_0 + u_5_1_0
          + u_5_2_0 + u_5_3_0 + u_5_4_0 + u_5_5_0 + u_5_6_0 + u_5_7_0 + u_5_8_0
          + u_5_9_0 + u_6_0_0 + u_6_1_0 + u_6_2_0 + u_6_3_0 + u_6_4_0 + u_6_5_0
          + u_6_6_0 + u_6_7_0 + u_6_8_0 + u_6_9_0 >= 5.699999999999999 
R51: u_1_0_1 + u_1_1_1 + u_1_2_1 + u_1_3_1 + u_1_4_1 + u_1_5_1 + u_1_6_1
          + u_1_7_1 + u_1_8_1 + u_1_9_1 + u_7_0_1 + u_7_1_1 + u_7_2_1 + u_7_3_1
          + u_7_4_1 + u_7_5_1 + u_7_6_1 + u_7_7_1 + u_7_8_1 + u_7_9_1 + u_8_0_1
          + u_8_1_1 + u_8_2_1 + u_8_3_1 + u_8_4_1 + u_8_5_1 + u_8_6_1 + u_8_7_1
          + u_8_8_1 + u_8_9_1 >= 2.8499999999999996 
R52: - 57 u_0_0_0 - 57 u_0_1_0 - 57 u_0_2_0 - 57 u_0_3_0 - 57 u_0_4_0
          - 57 u_0_5_0 - 57 u_0_6_0 - 57 u_0_7_0 - 57 u_0_8_0 - 57 u_0_9_0
          + y_0_0 <= 0 
R53: - 60 u_1_0_0 - 60 u_1_1_0 - 60 u_1_2_0 - 60 u_1_3_0 - 60 u_1_4_0
          - 60 u_1_5_0 - 60 u_1_6_0 - 60 u_1_7_0 - 60 u_1_8_0 - 60 u_1_9_0
          + y_1_0 <= 0 
R54: - 66 u_3_0_0 - 66 u_3_1_0 - 66 u_3_2_0 - 66 u_3_3_0 - 66 u_3_4_0
          - 66 u_3_5_0 - 66 u_3_6_0 - 66 u_3_7_0 - 66 u_3_8_0 - 66 u_3_9_0
          + y_3_0 <= 0 
R55: - 52 u_4_0_0 - 52 u_4_1_0 - 52 u_4_2_0 - 52 u_4_3_0 - 52 u_4_4_0
          - 52 u_4_5_0 - 52 u_4_6_0 - 52 u_4_7_0 - 52 u_4_8_0 - 52 u_4_9_0
          + y_4_0 <= 0 
R56: - 154 u_5_0_0 - 154 u_5_1_0 - 154 u_5_2_0 - 154 u_5_3_0 - 154 u_5_4_0
          - 154 u_5_5_0 - 154 u_5_6_0 - 154 u_5_7_0 - 154 u_5_8_0 - 154 u_5_9_0
          + y_5_0 <= 0 
R57: - 46 u_6_0_0 - 46 u_6_1_0 - 46 u_6_2_0 - 46 u_6_3_0 - 46 u_6_4_0
          - 46 u_6_5_0 - 46 u_6_6_0 - 46 u_6_7_0 - 46 u_6_8_0 - 46 u_6_9_0
          + y_6_0 <= 0 
R58: - 83 u_1_0_1 - 83 u_1_1_1 - 83 u_1_2_1 - 83 u_1_3_1 - 83 u_1_4_1
          - 83 u_1_5_1 - 83 u_1_6_1 - 83 u_1_7_1 - 83 u_1_8_1 - 83 u_1_9_1
          + y_1_1 <= 0 
R59: - 75 u_7_0_1 - 75 u_7_1_1 - 75 u_7_2_1 - 75 u_7_3_1 - 75 u_7_4_1
          - 75 u_7_5_1 - 75 u_7_6_1 - 75 u_7_7_1 - 75 u_7_8_1 - 75 u_7_9_1
          + y_7_1 <= 0 
R60: - 70 u_8_0_1 - 70 u_8_1_1 - 70 u_8_2_1 - 70 u_8_3_1 - 70 u_8_4_1
          - 70 u_8_5_1 - 70 u_8_6_1 - 70 u_8_7_1 - 70 u_8_8_1 - 70 u_8_9_1
          + y_8_1 <= 0 
R61: - 252.44919033342137 u_0_0_0 + y_0_0 - d_tilde_0_0 >= -252.44919033342137 
R62: - 174.90468718705054 u_1_0_0 + y_1_0 - d_tilde_1_0 >= -174.90468718705054 
R63: - 225.96657496187353 u_3_0_0 + y_3_0 - d_tilde_3_0 >= -225.96657496187353 
R64: - 247.48313578908764 u_4_0_0 + y_4_0 - d_tilde_4_0 >= -247.48313578908764 
R65: - 247.29977031934342 u_5_0_0 + y_5_0 - d_tilde_5_0 >= -247.29977031934342 
R66: - 247.16261145246057 u_6_0_0 + y_6_0 - d_tilde_6_0 >= -247.16261145246057 
R67: - 174.90468718705054 u_1_0_1 + y_1_1 - d_tilde_1_0 >= -174.90468718705054 
R68: - 252.44919033342137 u_7_0_1 + y_7_1 - d_tilde_7_0 >= -252.44919033342137 
R69: - 222.5748184319152 u_8_0_1 + y_8_1 - d_tilde_8_0 >= -222.5748184319152 
R70: - 252.44919033342137 u_0_1_0 + y_0_0 - d_tilde_0_1 >= -252.44919033342137 
R71: - 174.90468718705054 u_1_1_0 + y_1_0 - d_tilde_1_1 >= -174.90468718705054 
R72: - 225.96657496187353 u_3_1_0 + y_3_0 - d_tilde_3_1 >= -225.96657496187353 
R73: - 247.48313578908764 u_4_1_0 + y_4_0 - d_tilde_4_1 >= -247.48313578908764 
R74: - 247.29977031934342 u_5_1_0 + y_5_0 - d_tilde_5_1 >= -247.29977031934342 
R75: - 247.16261145246057 u_6_1_0 + y_6_0 - d_tilde_6_1 >= -247.16261145246057 
R76: - 174.90468718705054 u_1_1_1 + y_1_1 - d_tilde_1_1 >= -174.90468718705054 
R77: - 252.44919033342137 u_7_1_1 + y_7_1 - d_tilde_7_1 >= -252.44919033342137 
R78: - 222.5748184319152 u_8_1_1 + y_8_1 - d_tilde_8_1 >= -222.5748184319152 
R79: - 252.44919033342137 u_0_2_0 + y_0_0 - d_tilde_0_2 >= -252.44919033342137 
R80: - 174.90468718705054 u_1_2_0 + y_1_0 - d_tilde_1_2 >= -174.90468718705054 
R81: - 225.96657496187353 u_3_2_0 + y_3_0 - d_tilde_3_2 >= -225.96657496187353 
R82: - 247.48313578908764 u_4_2_0 + y_4_0 - d_tilde_4_2 >= -247.48313578908764 
R83: - 247.29977031934342 u_5_2_0 + y_5_0 - d_tilde_5_2 >= -247.29977031934342 
R84: - 247.16261145246057 u_6_2_0 + y_6_0 - d_tilde_6_2 >= -247.16261145246057 
R85: - 174.90468718705054 u_1_2_1 + y_1_1 - d_tilde_1_2 >= -174.90468718705054 
R86: - 252.44919033342137 u_7_2_1 + y_7_1 - d_tilde_7_2 >= -252.44919033342137 
R87: - 222.5748184319152 u_8_2_1 + y_8_1 - d_tilde_8_2 >= -222.5748184319152 
R88: - 252.44919033342137 u_0_3_0 + y_0_0 - d_tilde_0_3 >= -252.44919033342137 
R89: - 174.90468718705054 u_1_3_0 + y_1_0 - d_tilde_1_3 >= -174.90468718705054 
R90: - 225.96657496187353 u_3_3_0 + y_3_0 - d_tilde_3_3 >= -225.96657496187353 
R91: - 247.48313578908764 u_4_3_0 + y_4_0 - d_tilde_4_3 >= -247.48313578908764 
R92: - 247.29977031934342 u_5_3_0 + y_5_0 - d_tilde_5_3 >= -247.29977031934342 
R93: - 247.16261145246057 u_6_3_0 + y_6_0 - d_tilde_6_3 >= -247.16261145246057 
R94: - 174.90468718705054 u_1_3_1 + y_1_1 - d_tilde_1_3 >= -174.90468718705054 
R95: - 252.44919033342137 u_7_3_1 + y_7_1 - d_tilde_7_3 >= -252.44919033342137 
R96: - 222.5748184319152 u_8_3_1 + y_8_1 - d_tilde_8_3 >= -222.5748184319152 
R97: - 252.44919033342137 u_0_4_0 + y_0_0 - d_tilde_0_4 >= -252.44919033342137 
R98: - 174.90468718705054 u_1_4_0 + y_1_0 - d_tilde_1_4 >= -174.90468718705054 
R99: - 225.96657496187353 u_3_4_0 + y_3_0 - d_tilde_3_4 >= -225.96657496187353 
R100: - 247.48313578908764 u_4_4_0 + y_4_0 - d_tilde_4_4
          >= -247.48313578908764 
R101: - 247.29977031934342 u_5_4_0 + y_5_0 - d_tilde_5_4
          >= -247.29977031934342 
R102: - 247.16261145246057 u_6_4_0 + y_6_0 - d_tilde_6_4
          >= -247.16261145246057 
R103: - 174.90468718705054 u_1_4_1 + y_1_1 - d_tilde_1_4
          >= -174.90468718705054 
R104: - 252.44919033342137 u_7_4_1 + y_7_1 - d_tilde_7_4
          >= -252.44919033342137 
R105: - 222.5748184319152 u_8_4_1 + y_8_1 - d_tilde_8_4 >= -222.5748184319152 
R106: - 252.44919033342137 u_0_5_0 + y_0_0 - d_tilde_0_5
          >= -252.44919033342137 
R107: - 174.90468718705054 u_1_5_0 + y_1_0 - d_tilde_1_5
          >= -174.90468718705054 
R108: - 225.96657496187353 u_3_5_0 + y_3_0 - d_tilde_3_5
          >= -225.96657496187353 
R109: - 247.48313578908764 u_4_5_0 + y_4_0 - d_tilde_4_5
          >= -247.48313578908764 
R110: - 247.29977031934342 u_5_5_0 + y_5_0 - d_tilde_5_5
          >= -247.29977031934342 
R111: - 247.16261145246057 u_6_5_0 + y_6_0 - d_tilde_6_5
          >= -247.16261145246057 
R112: - 174.90468718705054 u_1_5_1 + y_1_1 - d_tilde_1_5
          >= -174.90468718705054 
R113: - 252.44919033342137 u_7_5_1 + y_7_1 - d_tilde_7_5
          >= -252.44919033342137 
R114: - 222.5748184319152 u_8_5_1 + y_8_1 - d_tilde_8_5 >= -222.5748184319152 
R115: - 252.44919033342137 u_0_6_0 + y_0_0 - d_tilde_0_6
          >= -252.44919033342137 
R116: - 174.90468718705054 u_1_6_0 + y_1_0 - d_tilde_1_6
          >= -174.90468718705054 
R117: - 225.96657496187353 u_3_6_0 + y_3_0 - d_tilde_3_6
          >= -225.96657496187353 
R118: - 247.48313578908764 u_4_6_0 + y_4_0 - d_tilde_4_6
          >= -247.48313578908764 
R119: - 247.29977031934342 u_5_6_0 + y_5_0 - d_tilde_5_6
          >= -247.29977031934342 
R120: - 247.16261145246057 u_6_6_0 + y_6_0 - d_tilde_6_6
          >= -247.16261145246057 
R121: - 174.90468718705054 u_1_6_1 + y_1_1 - d_tilde_1_6
          >= -174.90468718705054 
R122: - 252.44919033342137 u_7_6_1 + y_7_1 - d_tilde_7_6
          >= -252.44919033342137 
R123: - 222.5748184319152 u_8_6_1 + y_8_1 - d_tilde_8_6 >= -222.5748184319152 
R124: - 252.44919033342137 u_0_7_0 + y_0_0 - d_tilde_0_7
          >= -252.44919033342137 
R125: - 174.90468718705054 u_1_7_0 + y_1_0 - d_tilde_1_7
          >= -174.90468718705054 
R126: - 225.96657496187353 u_3_7_0 + y_3_0 - d_tilde_3_7
          >= -225.96657496187353 
R127: - 247.48313578908764 u_4_7_0 + y_4_0 - d_tilde_4_7
          >= -247.48313578908764 
R128: - 247.29977031934342 u_5_7_0 + y_5_0 - d_tilde_5_7
          >= -247.29977031934342 
R129: - 247.16261145246057 u_6_7_0 + y_6_0 - d_tilde_6_7
          >= -247.16261145246057 
R130: - 174.90468718705054 u_1_7_1 + y_1_1 - d_tilde_1_7
          >= -174.90468718705054 
R131: - 252.44919033342137 u_7_7_1 + y_7_1 - d_tilde_7_7
          >= -252.44919033342137 
R132: - 222.5748184319152 u_8_7_1 + y_8_1 - d_tilde_8_7 >= -222.5748184319152 
R133: - 252.44919033342137 u_0_8_0 + y_0_0 - d_tilde_0_8
          >= -252.44919033342137 
R134: - 174.90468718705054 u_1_8_0 + y_1_0 - d_tilde_1_8
          >= -174.90468718705054 
R135: - 225.96657496187353 u_3_8_0 + y_3_0 - d_tilde_3_8
          >= -225.96657496187353 
R136: - 247.48313578908764 u_4_8_0 + y_4_0 - d_tilde_4_8
          >= -247.48313578908764 
R137: - 247.29977031934342 u_5_8_0 + y_5_0 - d_tilde_5_8
          >= -247.29977031934342 
R138: - 247.16261145246057 u_6_8_0 + y_6_0 - d_tilde_6_8
          >= -247.16261145246057 
R139: - 174.90468718705054 u_1_8_1 + y_1_1 - d_tilde_1_8
          >= -174.90468718705054 
R140: - 252.44919033342137 u_7_8_1 + y_7_1 - d_tilde_7_8
          >= -252.44919033342137 
R141: - 222.5748184319152 u_8_8_1 + y_8_1 - d_tilde_8_8 >= -222.5748184319152 
R142: - 252.44919033342137 u_0_9_0 + y_0_0 - d_tilde_0_9
          >= -252.44919033342137 
R143: - 174.90468718705054 u_1_9_0 + y_1_0 - d_tilde_1_9
          >= -174.90468718705054 
R144: - 225.96657496187353 u_3_9_0 + y_3_0 - d_tilde_3_9
          >= -225.96657496187353 
R145: - 247.48313578908764 u_4_9_0 + y_4_0 - d_tilde_4_9
          >= -247.48313578908764 
R146: - 247.29977031934342 u_5_9_0 + y_5_0 - d_tilde_5_9
          >= -247.29977031934342 
R147: - 247.16261145246057 u_6_9_0 + y_6_0 - d_tilde_6_9
          >= -247.16261145246057 
R148: - 174.90468718705054 u_1_9_1 + y_1_1 - d_tilde_1_9
          >= -174.90468718705054 
R149: - 252.44919033342137 u_7_9_1 + y_7_1 - d_tilde_7_9
          >= -252.44919033342137 
R150: - 222.5748184319152 u_8_9_1 + y_8_1 - d_tilde_8_9 >= -222.5748184319152 
R151: y_0_0 - d_tilde_0_0 <= 0 
R152: y_1_0 - d_tilde_1_0 <= 0 
R153: y_3_0 - d_tilde_3_0 <= 0 
R154: y_4_0 - d_tilde_4_0 <= 0 
R155: y_5_0 - d_tilde_5_0 <= 0 
R156: y_6_0 - d_tilde_6_0 <= 0 
R157: y_1_1 - d_tilde_1_0 <= 0 
R158: y_7_1 - d_tilde_7_0 <= 0 
R159: y_8_1 - d_tilde_8_0 <= 0 
R160: y_0_0 - d_tilde_0_1 <= 0 
R161: y_1_0 - d_tilde_1_1 <= 0 
R162: y_3_0 - d_tilde_3_1 <= 0 
R163: y_4_0 - d_tilde_4_1 <= 0 
R164: y_5_0 - d_tilde_5_1 <= 0 
R165: y_6_0 - d_tilde_6_1 <= 0 
R166: y_1_1 - d_tilde_1_1 <= 0 
R167: y_7_1 - d_tilde_7_1 <= 0 
R168: y_8_1 - d_tilde_8_1 <= 0 
R169: y_0_0 - d_tilde_0_2 <= 0 
R170: y_1_0 - d_tilde_1_2 <= 0 
R171: y_3_0 - d_tilde_3_2 <= 0 
R172: y_4_0 - d_tilde_4_2 <= 0 
R173: y_5_0 - d_tilde_5_2 <= 0 
R174: y_6_0 - d_tilde_6_2 <= 0 
R175: y_1_1 - d_tilde_1_2 <= 0 
R176: y_7_1 - d_tilde_7_2 <= 0 
R177: y_8_1 - d_tilde_8_2 <= 0 
R178: y_0_0 - d_tilde_0_3 <= 0 
R179: y_1_0 - d_tilde_1_3 <= 0 
R180: y_3_0 - d_tilde_3_3 <= 0 
R181: y_4_0 - d_tilde_4_3 <= 0 
R182: y_5_0 - d_tilde_5_3 <= 0 
R183: y_6_0 - d_tilde_6_3 <= 0 
R184: y_1_1 - d_tilde_1_3 <= 0 
R185: y_7_1 - d_tilde_7_3 <= 0 
R186: y_8_1 - d_tilde_8_3 <= 0 
R187: y_0_0 - d_tilde_0_4 <= 0 
R188: y_1_0 - d_tilde_1_4 <= 0 
R189: y_3_0 - d_tilde_3_4 <= 0 
R190: y_4_0 - d_tilde_4_4 <= 0 
R191: y_5_0 - d_tilde_5_4 <= 0 
R192: y_6_0 - d_tilde_6_4 <= 0 
R193: y_1_1 - d_tilde_1_4 <= 0 
R194: y_7_1 - d_tilde_7_4 <= 0 
R195: y_8_1 - d_tilde_8_4 <= 0 
R196: y_0_0 - d_tilde_0_5 <= 0 
R197: y_1_0 - d_tilde_1_5 <= 0 
R198: y_3_0 - d_tilde_3_5 <= 0 
R199: y_4_0 - d_tilde_4_5 <= 0 
R200: y_5_0 - d_tilde_5_5 <= 0 
R201: y_6_0 - d_tilde_6_5 <= 0 
R202: y_1_1 - d_tilde_1_5 <= 0 
R203: y_7_1 - d_tilde_7_5 <= 0 
R204: y_8_1 - d_tilde_8_5 <= 0 
R205: y_0_0 - d_tilde_0_6 <= 0 
R206: y_1_0 - d_tilde_1_6 <= 0 
R207: y_3_0 - d_tilde_3_6 <= 0 
R208: y_4_0 - d_tilde_4_6 <= 0 
R209: y_5_0 - d_tilde_5_6 <= 0 
R210: y_6_0 - d_tilde_6_6 <= 0 
R211: y_1_1 - d_tilde_1_6 <= 0 
R212: y_7_1 - d_tilde_7_6 <= 0 
R213: y_8_1 - d_tilde_8_6 <= 0 
R214: y_0_0 - d_tilde_0_7 <= 0 
R215: y_1_0 - d_tilde_1_7 <= 0 
R216: y_3_0 - d_tilde_3_7 <= 0 
R217: y_4_0 - d_tilde_4_7 <= 0 
R218: y_5_0 - d_tilde_5_7 <= 0 
R219: y_6_0 - d_tilde_6_7 <= 0 
R220: y_1_1 - d_tilde_1_7 <= 0 
R221: y_7_1 - d_tilde_7_7 <= 0 
R222: y_8_1 - d_tilde_8_7 <= 0 
R223: y_0_0 - d_tilde_0_8 <= 0 
R224: y_1_0 - d_tilde_1_8 <= 0 
R225: y_3_0 - d_tilde_3_8 <= 0 
R226: y_4_0 - d_tilde_4_8 <= 0 
R227: y_5_0 - d_tilde_5_8 <= 0 
R228: y_6_0 - d_tilde_6_8 <= 0 
R229: y_1_1 - d_tilde_1_8 <= 0 
R230: y_7_1 - d_tilde_7_8 <= 0 
R231: y_8_1 - d_tilde_8_8 <= 0 
R232: y_0_0 - d_tilde_0_9 <= 0 
R233: y_1_0 - d_tilde_1_9 <= 0 
R234: y_3_0 - d_tilde_3_9 <= 0 
R235: y_4_0 - d_tilde_4_9 <= 0 
R236: y_5_0 - d_tilde_5_9 <= 0 
R237: y_6_0 - d_tilde_6_9 <= 0 
R238: y_1_1 - d_tilde_1_9 <= 0 
R239: y_7_1 - d_tilde_7_9 <= 0 
R240: y_8_1 - d_tilde_8_9 <= 0 
R241: 542.62 x_0_0 + 67.56 x_0_1 + [ - x_0_0^2 - x_0_1^2 + d_tilde_0_0^2 ]
          >= 74750.20449999999 
R242: 364.9 x_0_0 + 39.58 x_1_1 + [ - x_0_0^2 - x_1_1^2 + d_tilde_1_0^2 ]
          >= 33679.64659999999 
R243: 516.72 x_0_0 + 108.26 x_2_1 + [ - x_0_0^2 - x_2_1^2 + d_tilde_2_0^2 ]
          >= 69679.9465 
R244: 487.92 x_0_0 + 122.52 x_3_1 + [ - x_0_0^2 - x_3_1^2 + d_tilde_3_0^2 ]
          >= 63269.26920000001 
R245: 531.04 x_0_0 + 38.5 x_4_1 + [ - x_0_0^2 - x_4_1^2 + d_tilde_4_0^2 ]
          >= 70871.43289999999 
R246: 531.74 x_0_0 + 53.58 x_5_1 + [ - x_0_0^2 - x_5_1^2 + d_tilde_5_0^2 ]
          >= 71404.561 
R247: 82.18 x_0_0 + 245.58 x_6_1 + [ - x_0_0^2 - x_6_1^2 + d_tilde_6_0^2 ]
          >= 16765.772200000003 
R248: 37.9 x_0_0 + 80.98 x_7_1 + [ - x_0_0^2 - x_7_1^2 + d_tilde_7_0^2 ]
          >= 1998.5426000000002 
R249: 481.76 x_0_0 + 114.84 x_8_1 + [ - x_0_0^2 - x_8_1^2 + d_tilde_8_0^2 ]
          >= 61320.2308 
R250: 514.66 x_0_0 + 36.88 x_9_1 + [ - x_0_0^2 - x_9_1^2 + d_tilde_9_0^2 ]
          >= 66558.76249999998 
R251: 67.56 x_0_1 + 542.62 x_1_0 + [ - x_0_1^2 - x_1_0^2 + d_tilde_0_1^2 ]
          >= 74750.20449999999 
R252: 364.9 x_1_0 + 39.58 x_1_1 + [ - x_1_0^2 - x_1_1^2 + d_tilde_1_1^2 ]
          >= 33679.64659999999 
R253: 516.72 x_1_0 + 108.26 x_2_1 + [ - x_1_0^2 - x_2_1^2 + d_tilde_2_1^2 ]
          >= 69679.9465 
R254: 487.92 x_1_0 + 122.52 x_3_1 + [ - x_1_0^2 - x_3_1^2 + d_tilde_3_1^2 ]
          >= 63269.26920000001 
R255: 531.04 x_1_0 + 38.5 x_4_1 + [ - x_1_0^2 - x_4_1^2 + d_tilde_4_1^2 ]
          >= 70871.43289999999 
R256: 531.74 x_1_0 + 53.58 x_5_1 + [ - x_1_0^2 - x_5_1^2 + d_tilde_5_1^2 ]
          >= 71404.561 
R257: 82.18 x_1_0 + 245.58 x_6_1 + [ - x_1_0^2 - x_6_1^2 + d_tilde_6_1^2 ]
          >= 16765.772200000003 
R258: 37.9 x_1_0 + 80.98 x_7_1 + [ - x_1_0^2 - x_7_1^2 + d_tilde_7_1^2 ]
          >= 1998.5426000000002 
R259: 481.76 x_1_0 + 114.84 x_8_1 + [ - x_1_0^2 - x_8_1^2 + d_tilde_8_1^2 ]
          >= 61320.2308 
R260: 514.66 x_1_0 + 36.88 x_9_1 + [ - x_1_0^2 - x_9_1^2 + d_tilde_9_1^2 ]
          >= 66558.76249999998 
R261: 67.56 x_0_1 + 542.62 x_2_0 + [ - x_0_1^2 - x_2_0^2 + d_tilde_0_2^2 ]
          >= 74750.20449999999 
R262: 39.58 x_1_1 + 364.9 x_2_0 + [ - x_1_1^2 - x_2_0^2 + d_tilde_1_2^2 ]
          >= 33679.64659999999 
R263: 516.72 x_2_0 + 108.26 x_2_1 + [ - x_2_0^2 - x_2_1^2 + d_tilde_2_2^2 ]
          >= 69679.9465 
R264: 487.92 x_2_0 + 122.52 x_3_1 + [ - x_2_0^2 - x_3_1^2 + d_tilde_3_2^2 ]
          >= 63269.26920000001 
R265: 531.04 x_2_0 + 38.5 x_4_1 + [ - x_2_0^2 - x_4_1^2 + d_tilde_4_2^2 ]
          >= 70871.43289999999 
R266: 531.74 x_2_0 + 53.58 x_5_1 + [ - x_2_0^2 - x_5_1^2 + d_tilde_5_2^2 ]
          >= 71404.561 
R267: 82.18 x_2_0 + 245.58 x_6_1 + [ - x_2_0^2 - x_6_1^2 + d_tilde_6_2^2 ]
          >= 16765.772200000003 
R268: 37.9 x_2_0 + 80.98 x_7_1 + [ - x_2_0^2 - x_7_1^2 + d_tilde_7_2^2 ]
          >= 1998.5426000000002 
R269: 481.76 x_2_0 + 114.84 x_8_1 + [ - x_2_0^2 - x_8_1^2 + d_tilde_8_2^2 ]
          >= 61320.2308 
R270: 514.66 x_2_0 + 36.88 x_9_1 + [ - x_2_0^2 - x_9_1^2 + d_tilde_9_2^2 ]
          >= 66558.76249999998 
R271: 67.56 x_0_1 + 542.62 x_3_0 + [ - x_0_1^2 - x_3_0^2 + d_tilde_0_3^2 ]
          >= 74750.20449999999 
R272: 39.58 x_1_1 + 364.9 x_3_0 + [ - x_1_1^2 - x_3_0^2 + d_tilde_1_3^2 ]
          >= 33679.64659999999 
R273: 108.26 x_2_1 + 516.72 x_3_0 + [ - x_2_1^2 - x_3_0^2 + d_tilde_2_3^2 ]
          >= 69679.9465 
R274: 487.92 x_3_0 + 122.52 x_3_1 + [ - x_3_0^2 - x_3_1^2 + d_tilde_3_3^2 ]
          >= 63269.26920000001 
R275: 531.04 x_3_0 + 38.5 x_4_1 + [ - x_3_0^2 - x_4_1^2 + d_tilde_4_3^2 ]
          >= 70871.43289999999 
R276: 531.74 x_3_0 + 53.58 x_5_1 + [ - x_3_0^2 - x_5_1^2 + d_tilde_5_3^2 ]
          >= 71404.561 
R277: 82.18 x_3_0 + 245.58 x_6_1 + [ - x_3_0^2 - x_6_1^2 + d_tilde_6_3^2 ]
          >= 16765.772200000003 
R278: 37.9 x_3_0 + 80.98 x_7_1 + [ - x_3_0^2 - x_7_1^2 + d_tilde_7_3^2 ]
          >= 1998.5426000000002 
R279: 481.76 x_3_0 + 114.84 x_8_1 + [ - x_3_0^2 - x_8_1^2 + d_tilde_8_3^2 ]
          >= 61320.2308 
R280: 514.66 x_3_0 + 36.88 x_9_1 + [ - x_3_0^2 - x_9_1^2 + d_tilde_9_3^2 ]
          >= 66558.76249999998 
R281: 67.56 x_0_1 + 542.62 x_4_0 + [ - x_0_1^2 - x_4_0^2 + d_tilde_0_4^2 ]
          >= 74750.20449999999 
R282: 39.58 x_1_1 + 364.9 x_4_0 + [ - x_1_1^2 - x_4_0^2 + d_tilde_1_4^2 ]
          >= 33679.64659999999 
R283: 108.26 x_2_1 + 516.72 x_4_0 + [ - x_2_1^2 - x_4_0^2 + d_tilde_2_4^2 ]
          >= 69679.9465 
R284: 122.52 x_3_1 + 487.92 x_4_0 + [ - x_3_1^2 - x_4_0^2 + d_tilde_3_4^2 ]
          >= 63269.26920000001 
R285: 531.04 x_4_0 + 38.5 x_4_1 + [ - x_4_0^2 - x_4_1^2 + d_tilde_4_4^2 ]
          >= 70871.43289999999 
R286: 531.74 x_4_0 + 53.58 x_5_1 + [ - x_4_0^2 - x_5_1^2 + d_tilde_5_4^2 ]
          >= 71404.561 
R287: 82.18 x_4_0 + 245.58 x_6_1 + [ - x_4_0^2 - x_6_1^2 + d_tilde_6_4^2 ]
          >= 16765.772200000003 
R288: 37.9 x_4_0 + 80.98 x_7_1 + [ - x_4_0^2 - x_7_1^2 + d_tilde_7_4^2 ]
          >= 1998.5426000000002 
R289: 481.76 x_4_0 + 114.84 x_8_1 + [ - x_4_0^2 - x_8_1^2 + d_tilde_8_4^2 ]
          >= 61320.2308 
R290: 514.66 x_4_0 + 36.88 x_9_1 + [ - x_4_0^2 - x_9_1^2 + d_tilde_9_4^2 ]
          >= 66558.76249999998 
R291: 67.56 x_0_1 + 542.62 x_5_0 + [ - x_0_1^2 - x_5_0^2 + d_tilde_0_5^2 ]
          >= 74750.20449999999 
R292: 39.58 x_1_1 + 364.9 x_5_0 + [ - x_1_1^2 - x_5_0^2 + d_tilde_1_5^2 ]
          >= 33679.64659999999 
R293: 108.26 x_2_1 + 516.72 x_5_0 + [ - x_2_1^2 - x_5_0^2 + d_tilde_2_5^2 ]
          >= 69679.9465 
R294: 122.52 x_3_1 + 487.92 x_5_0 + [ - x_3_1^2 - x_5_0^2 + d_tilde_3_5^2 ]
          >= 63269.26920000001 
R295: 38.5 x_4_1 + 531.04 x_5_0 + [ - x_4_1^2 - x_5_0^2 + d_tilde_4_5^2 ]
          >= 70871.43289999999 
R296: 531.74 x_5_0 + 53.58 x_5_1 + [ - x_5_0^2 - x_5_1^2 + d_tilde_5_5^2 ]
          >= 71404.561 
R297: 82.18 x_5_0 + 245.58 x_6_1 + [ - x_5_0^2 - x_6_1^2 + d_tilde_6_5^2 ]
          >= 16765.772200000003 
R298: 37.9 x_5_0 + 80.98 x_7_1 + [ - x_5_0^2 - x_7_1^2 + d_tilde_7_5^2 ]
          >= 1998.5426000000002 
R299: 481.76 x_5_0 + 114.84 x_8_1 + [ - x_5_0^2 - x_8_1^2 + d_tilde_8_5^2 ]
          >= 61320.2308 
R300: 514.66 x_5_0 + 36.88 x_9_1 + [ - x_5_0^2 - x_9_1^2 + d_tilde_9_5^2 ]
          >= 66558.76249999998 
R301: 67.56 x_0_1 + 542.62 x_6_0 + [ - x_0_1^2 - x_6_0^2 + d_tilde_0_6^2 ]
          >= 74750.20449999999 
R302: 39.58 x_1_1 + 364.9 x_6_0 + [ - x_1_1^2 - x_6_0^2 + d_tilde_1_6^2 ]
          >= 33679.64659999999 
R303: 108.26 x_2_1 + 516.72 x_6_0 + [ - x_2_1^2 - x_6_0^2 + d_tilde_2_6^2 ]
          >= 69679.9465 
R304: 122.52 x_3_1 + 487.92 x_6_0 + [ - x_3_1^2 - x_6_0^2 + d_tilde_3_6^2 ]
          >= 63269.26920000001 
R305: 38.5 x_4_1 + 531.04 x_6_0 + [ - x_4_1^2 - x_6_0^2 + d_tilde_4_6^2 ]
          >= 70871.43289999999 
R306: 53.58 x_5_1 + 531.74 x_6_0 + [ - x_5_1^2 - x_6_0^2 + d_tilde_5_6^2 ]
          >= 71404.561 
R307: 82.18 x_6_0 + 245.58 x_6_1 + [ - x_6_0^2 - x_6_1^2 + d_tilde_6_6^2 ]
          >= 16765.772200000003 
R308: 37.9 x_6_0 + 80.98 x_7_1 + [ - x_6_0^2 - x_7_1^2 + d_tilde_7_6^2 ]
          >= 1998.5426000000002 
R309: 481.76 x_6_0 + 114.84 x_8_1 + [ - x_6_0^2 - x_8_1^2 + d_tilde_8_6^2 ]
          >= 61320.2308 
R310: 514.66 x_6_0 + 36.88 x_9_1 + [ - x_6_0^2 - x_9_1^2 + d_tilde_9_6^2 ]
          >= 66558.76249999998 
R311: 67.56 x_0_1 + 542.62 x_7_0 + [ - x_0_1^2 - x_7_0^2 + d_tilde_0_7^2 ]
          >= 74750.20449999999 
R312: 39.58 x_1_1 + 364.9 x_7_0 + [ - x_1_1^2 - x_7_0^2 + d_tilde_1_7^2 ]
          >= 33679.64659999999 
R313: 108.26 x_2_1 + 516.72 x_7_0 + [ - x_2_1^2 - x_7_0^2 + d_tilde_2_7^2 ]
          >= 69679.9465 
R314: 122.52 x_3_1 + 487.92 x_7_0 + [ - x_3_1^2 - x_7_0^2 + d_tilde_3_7^2 ]
          >= 63269.26920000001 
R315: 38.5 x_4_1 + 531.04 x_7_0 + [ - x_4_1^2 - x_7_0^2 + d_tilde_4_7^2 ]
          >= 70871.43289999999 
R316: 53.58 x_5_1 + 531.74 x_7_0 + [ - x_5_1^2 - x_7_0^2 + d_tilde_5_7^2 ]
          >= 71404.561 
R317: 245.58 x_6_1 + 82.18 x_7_0 + [ - x_6_1^2 - x_7_0^2 + d_tilde_6_7^2 ]
          >= 16765.772200000003 
R318: 37.9 x_7_0 + 80.98 x_7_1 + [ - x_7_0^2 - x_7_1^2 + d_tilde_7_7^2 ]
          >= 1998.5426000000002 
R319: 481.76 x_7_0 + 114.84 x_8_1 + [ - x_7_0^2 - x_8_1^2 + d_tilde_8_7^2 ]
          >= 61320.2308 
R320: 514.66 x_7_0 + 36.88 x_9_1 + [ - x_7_0^2 - x_9_1^2 + d_tilde_9_7^2 ]
          >= 66558.76249999998 
R321: 67.56 x_0_1 + 542.62 x_8_0 + [ - x_0_1^2 - x_8_0^2 + d_tilde_0_8^2 ]
          >= 74750.20449999999 
R322: 39.58 x_1_1 + 364.9 x_8_0 + [ - x_1_1^2 - x_8_0^2 + d_tilde_1_8^2 ]
          >= 33679.64659999999 
R323: 108.26 x_2_1 + 516.72 x_8_0 + [ - x_2_1^2 - x_8_0^2 + d_tilde_2_8^2 ]
          >= 69679.9465 
R324: 122.52 x_3_1 + 487.92 x_8_0 + [ - x_3_1^2 - x_8_0^2 + d_tilde_3_8^2 ]
          >= 63269.26920000001 
R325: 38.5 x_4_1 + 531.04 x_8_0 + [ - x_4_1^2 - x_8_0^2 + d_tilde_4_8^2 ]
          >= 70871.43289999999 
R326: 53.58 x_5_1 + 531.74 x_8_0 + [ - x_5_1^2 - x_8_0^2 + d_tilde_5_8^2 ]
          >= 71404.561 
R327: 245.58 x_6_1 + 82.18 x_8_0 + [ - x_6_1^2 - x_8_0^2 + d_tilde_6_8^2 ]
          >= 16765.772200000003 
R328: 80.98 x_7_1 + 37.9 x_8_0 + [ - x_7_1^2 - x_8_0^2 + d_tilde_7_8^2 ]
          >= 1998.5426000000002 
R329: 481.76 x_8_0 + 114.84 x_8_1 + [ - x_8_0^2 - x_8_1^2 + d_tilde_8_8^2 ]
          >= 61320.2308 
R330: 514.66 x_8_0 + 36.88 x_9_1 + [ - x_8_0^2 - x_9_1^2 + d_tilde_9_8^2 ]
          >= 66558.76249999998 
R331: 67.56 x_0_1 + 542.62 x_9_0 + [ - x_0_1^2 - x_9_0^2 + d_tilde_0_9^2 ]
          >= 74750.20449999999 
R332: 39.58 x_1_1 + 364.9 x_9_0 + [ - x_1_1^2 - x_9_0^2 + d_tilde_1_9^2 ]
          >= 33679.64659999999 
R333: 108.26 x_2_1 + 516.72 x_9_0 + [ - x_2_1^2 - x_9_0^2 + d_tilde_2_9^2 ]
          >= 69679.9465 
R334: 122.52 x_3_1 + 487.92 x_9_0 + [ - x_3_1^2 - x_9_0^2 + d_tilde_3_9^2 ]
          >= 63269.26920000001 
R335: 38.5 x_4_1 + 531.04 x_9_0 + [ - x_4_1^2 - x_9_0^2 + d_tilde_4_9^2 ]
          >= 70871.43289999999 
R336: 53.58 x_5_1 + 531.74 x_9_0 + [ - x_5_1^2 - x_9_0^2 + d_tilde_5_9^2 ]
          >= 71404.561 
R337: 245.58 x_6_1 + 82.18 x_9_0 + [ - x_6_1^2 - x_9_0^2 + d_tilde_6_9^2 ]
          >= 16765.772200000003 
R338: 80.98 x_7_1 + 37.9 x_9_0 + [ - x_7_1^2 - x_9_0^2 + d_tilde_7_9^2 ]
          >= 1998.5426000000002 
R339: 114.84 x_8_1 + 481.76 x_9_0 + [ - x_8_1^2 - x_9_0^2 + d_tilde_8_9^2 ]
          >= 61320.2308 
R340: 514.66 x_9_0 + 36.88 x_9_1 + [ - x_9_0^2 - x_9_1^2 + d_tilde_9_9^2 ]
          >= 66558.76249999998 

Bounds
18.95 <= x_0_0 <= 271.31 
18.44 <= x_0_1 <= 122.79 
18.95 <= x_1_0 <= 271.31 
18.44 <= x_1_1 <= 122.79 
18.95 <= x_2_0 <= 271.31 
18.44 <= x_2_1 <= 122.79 
18.95 <= x_3_0 <= 271.31 
18.44 <= x_3_1 <= 122.79 
18.95 <= x_4_0 <= 271.31 
18.44 <= x_4_1 <= 122.79 
18.95 <= x_5_0 <= 271.31 
18.44 <= x_5_1 <= 122.79 
18.95 <= x_6_0 <= 271.31 
18.44 <= x_6_1 <= 122.79 
18.95 <= x_7_0 <= 271.31 
18.44 <= x_7_1 <= 122.79 
18.95 <= x_8_0 <= 271.31 
18.44 <= x_8_1 <= 122.79 
18.95 <= x_9_0 <= 271.31 
18.44 <= x_9_1 <= 122.79 

Generals
w_0 w_1 w_2 w_3 w_4 w_5 w_6 w_7 w_8 w_9 

Binaries
v_0 v_1 v_2 v_3 v_4 v_5 v_6 v_7 v_8 v_9 u_0_0_0 u_0_1_0 u_0_2_0 u_0_3_0 
u_0_4_0 u_0_5_0 u_0_6_0 u_0_7_0 u_0_8_0 u_0_9_0 u_1_0_0 u_1_1_0 u_1_2_0 
u_1_3_0 u_1_4_0 u_1_5_0 u_1_6_0 u_1_7_0 u_1_8_0 u_1_9_0 u_3_0_0 u_3_1_0 
u_3_2_0 u_3_3_0 u_3_4_0 u_3_5_0 u_3_6_0 u_3_7_0 u_3_8_0 u_3_9_0 u_4_0_0 
u_4_1_0 u_4_2_0 u_4_3_0 u_4_4_0 u_4_5_0 u_4_6_0 u_4_7_0 u_4_8_0 u_4_9_0 
u_5_0_0 u_5_1_0 u_5_2_0 u_5_3_0 u_5_4_0 u_5_5_0 u_5_6_0 u_5_7_0 u_5_8_0 
u_5_9_0 u_6_0_0 u_6_1_0 u_6_2_0 u_6_3_0 u_6_4_0 u_6_5_0 u_6_6_0 u_6_7_0 
u_6_8_0 u_6_9_0 u_1_0_1 u_1_1_1 u_1_2_1 u_1_3_1 u_1_4_1 u_1_5_1 u_1_6_1 
u_1_7_1 u_1_8_1 u_1_9_1 u_7_0_1 u_7_1_1 u_7_2_1 u_7_3_1 u_7_4_1 u_7_5_1 
u_7_6_1 u_7_7_1 u_7_8_1 u_7_9_1 u_8_0_1 u_8_1_1 u_8_2_1 u_8_3_1 u_8_4_1 
u_8_5_1 u_8_6_1 u_8_7_1 u_8_8_1 u_8_9_1 

End
