\ This file has been generated by DOcplex
\ ENCODING=ISO-8859-1
\Problem name: Placement EV Chargers - Location Improvement

Minimize
 obj: 5000 v_0 + 5000 v_1 + 5000 v_2 + 5000 v_3 + 5000 v_4 + 500 w_0 + 500 w_1
      + 500 w_2 + 500 w_3 + 500 w_4 + 162.588763289168 u_0_0_0
      + 488.129420785532 u_0_0_4 + 616.075690580215 u_0_2_0
      + 76.523197476856 u_0_2_4 + 77.764018859416 u_0_3_0
      + 615.700910352232 u_0_3_4 + 34.753196059974 u_0_4_0
      + 1219.156887734659 u_0_4_3 + 520.713902724797 u_0_4_4
      + 1204.335536582163 u_1_0_0 + 1098.725282340678 u_1_0_4
      + 0.000000000000 u_1_1_1 + 593.645718249992 u_1_2_0
      + 1012.145626963847 u_1_2_3 + 99.844225827491 u_1_2_4
Subject To
 number_w_0: w_0 - 8 v_0 <= 0
 number_w_1: w_1 - 8 v_1 <= 0
 number_w_2: w_2 - 8 v_2 <= 0
 number_w_3: w_3 - 8 v_3 <= 0
 number_w_4: w_4 - 8 v_4 <= 0
 number_v_0: v_0 - w_0 <= 0
 number_v_1: v_1 - w_1 <= 0
 number_v_2: v_2 - w_2 <= 0
 number_v_3: v_3 - w_3 <= 0
 number_v_4: v_4 - w_4 <= 0
 allocation_qw_0_0: u_0_0_0 + u_0_2_0 + u_0_3_0 + u_0_4_0 - 2 w_0 <= 0
 allocation_qw_0_1: - 2 w_1 <= 0
 allocation_qw_0_2: u_0_5_2 - 2 w_2 <= 0
 allocation_qw_0_3: u_0_1_3 + u_0_4_3 - 2 w_3 <= 0
 allocation_qw_0_4: u_0_0_4 + u_0_2_4 + u_0_3_4 + u_0_4_4 - 2 w_4 <= 0
 service_level_0: u_0_0_0 + u_0_0_4 + u_0_1_3 + u_0_2_0 + u_0_2_4 + u_0_3_0
                  + u_0_3_4 + u_0_4_0 + u_0_4_3 + u_0_4_4 + u_0_5_2 >= 
                  5.700000000000
 charger_allocation_0_0: u_0_0_0 + u_0_0_4 <= 1
 charger_allocation_0_1: u_0_1_3 <= 1
 charger_allocation_0_2: u_0_2_0 + u_0_2_4 <= 1
 charger_allocation_0_3: u_0_3_0 + u_0_3_4 <= 1
 charger_allocation_0_4: u_0_4_0 + u_0_4_3 + u_0_4_4 <= 1
 charger_allocation_0_5: u_0_5_2 <= 1
 allocation_qw_1_0: u_1_0_0 + u_1_2_0 - 2 w_0 <= 0
 allocation_qw_1_1: u_1_1_1 - 2 w_1 <= 0
 allocation_qw_1_2: - 2 w_2 <= 0
 allocation_qw_1_3: u_1_0_3 + u_1_2_3 - 2 w_3 <= 0
 allocation_qw_1_4: u_1_0_4 + u_1_2_4 - 2 w_4 <= 0
 service_level_1: u_1_0_0 + u_1_0_3 + u_1_0_4 + u_1_1_1 + u_1_2_0 + u_1_2_3
                  + u_1_2_4 >= 2.850000000000
 charger_allocation_1_0: u_1_0_0 + u_1_0_3 + u_1_0_4 <= 1
 charger_allocation_1_1: u_1_1_1 <= 1
 charger_allocation_1_2: u_1_2_0 + u_1_2_3 + u_1_2_4 <= 1

Bounds
 0 <= v_0 <= 1
 0 <= v_1 <= 1
 0 <= v_2 <= 1
 0 <= v_3 <= 1
 0 <= v_4 <= 1
 0 <= u_0_0_0 <= 1
 0 <= u_0_0_4 <= 1
 0 <= u_0_1_3 <= 1
 0 <= u_0_2_0 <= 1
 0 <= u_0_2_4 <= 1
 0 <= u_0_3_0 <= 1
 0 <= u_0_3_4 <= 1
 0 <= u_0_4_0 <= 1
 0 <= u_0_4_3 <= 1
 0 <= u_0_4_4 <= 1
 0 <= u_0_5_2 <= 1
 0 <= u_1_0_0 <= 1
 0 <= u_1_0_3 <= 1
 0 <= u_1_0_4 <= 1
 0 <= u_1_1_1 <= 1
 0 <= u_1_2_0 <= 1
 0 <= u_1_2_3 <= 1
 0 <= u_1_2_4 <= 1

Binaries
 v_0 v_1 v_2 v_3 v_4 u_0_0_0 u_0_0_4 u_0_1_3 u_0_2_0 u_0_2_4 u_0_3_0 u_0_3_4
 u_0_4_0 u_0_4_3 u_0_4_4 u_0_5_2 u_1_0_0 u_1_0_3 u_1_0_4 u_1_1_1 u_1_2_0 u_1_2_3
 u_1_2_4

Generals
 w_0 w_1 w_2 w_3 w_4
End
